variable	RANDS universe 21 71 23 36 86 57 61 38 79 93
log 		log.lammps.${RANDS}
variable 	TEMP equal 1800
variable 	NSTEPS equal 10000000
variable 	POT string ../W_bjorkas09.eam.fs

units 		metal
dimension 	3
boundary 	p p p
atom_style 	atomic
read_restart 	../equilibrate.restart

pair_style 	eam/fs
pair_coeff 	* * ${POT} W W 

neighbor 	1.0 bin
neigh_modify 	once no every 1 delay 0 check yes
group 		latAtoms type 1
group 		defatoms type 2

velocity 	all create ${TEMP} ${RANDS}

compute 	d_pe defatoms pe/atom
compute 	d_tpe defatoms reduce sum c_d_pe

thermo		1000
thermo_style 	custom step dt temp pe ke press vol lx ly lz  c_d_tpe
thermo_modify 	norm no
timestep 	1.0E-3

fix		fixnpt all npt temp ${TEMP} ${TEMP} 0.1 iso 0.0 0.0 0.1
run 		100000

unfix 		fixnpt
reset_timestep  0
dump		dumpRamp all custom 1000 ramp.${RANDS}.dump id type x y z
fix 		fixnvt all nvt temp ${TEMP} ${TEMP} 0.1

run 		${NSTEPS}

write_restart	ramp.restart.${RANDS}
